10093
2350
2716
1128
8102
3844
6488
636
9169
2572
7913
8378
6155
7498
974
7855
536
644
5036
771
2859
1135
6230
4667
2403
7121
6030
7151
3625
9629
2734
958
6420
8890
6826
5714
7004
2497
7020
4555
4618
8320
3707
4683
10042
9150
3056
6484
3500
3862
